56
84
91
86
20
25
92
53
69
9
80
49
29
36
14
94
73
28
98
57
87
67
21
10
15
40
77
11
65
95
59
24
37
4
30
22
63
66
16
55
71
41
93
70
50
54
13
52
35
12
5
64
47
31
38
0
42
2
51
44
43
97
89
1
3
99
46
76
34
18
82
26
62
96
27
19
61
17
6
79
72
60
58
33
90
32
85
8
74
68
39
48
83
81
45
78
75
7
23
88
